NAME : 50_5_02.74312.tour
COMMENT : Cost = 0_74312
COMMENT : Found by LKH [Keld Helsgaun] Thu Sep 14 11:11:23 2017
TYPE : TOUR
DIMENSION : 55
TOUR_SECTION
1
46
27
29
31
28
33
34
32
37
36
30
55
3
13
14
39
15
12
17
16
40
18
19
41
26
52
5
45
38
51
24
11
20
43
10
35
42
25
54
6
9
2
4
53
7
48
8
44
21
23
22
49
50
47
-1
EOF
